% clingo version 5.6.2
% Reading from room_s10_a30_w5.lp ...
% Solving...
% Answer: 1
%ANSWER
init(object(shelf,1),value(at,(9,2))). init(object(shelf,2),value(at,(7,9))). init(object(shelf,3),value(at,(3,9))). init(object(shelf,4),value(at,(4,1))). init(object(shelf,5),value(at,(10,5))). init(object(shelf,6),value(at,(1,1))). init(object(shelf,7),value(at,(3,1))). init(object(shelf,8),value(at,(2,9))). init(object(shelf,9),value(at,(8,1))). init(object(shelf,10),value(at,(8,2))). init(object(shelf,11),value(at,(5,10))). init(object(shelf,12),value(at,(10,4))). init(object(shelf,13),value(at,(3,2))). init(object(shelf,14),value(at,(7,1))). init(object(shelf,15),value(at,(1,3))). init(object(shelf,16),value(at,(2,3))). init(object(shelf,17),value(at,(5,7))). init(object(shelf,18),value(at,(3,5))). init(object(shelf,19),value(at,(7,2))). init(object(shelf,20),value(at,(4,2))). init(object(shelf,21),value(at,(4,9))). init(object(shelf,22),value(at,(2,2))). init(object(shelf,23),value(at,(1,2))). init(object(shelf,24),value(at,(9,1))). init(object(shelf,25),value(at,(10,1))). init(object(shelf,26),value(at,(2,1))). init(object(shelf,27),value(at,(5,1))). init(object(shelf,28),value(at,(5,2))). init(object(shelf,29),value(at,(1,10))). init(object(shelf,30),value(at,(10,2))). init(object(robot,1),value(at,(2,3))). init(object(robot,2),value(at,(5,3))). init(object(robot,3),value(at,(1,2))). init(object(robot,4),value(at,(9,4))). init(object(robot,5),value(at,(1,3))). init(object(robot,6),value(at,(9,1))). init(object(robot,7),value(at,(9,3))). init(object(robot,8),value(at,(10,9))). init(object(robot,9),value(at,(1,4))). init(object(robot,10),value(at,(2,4))). init(object(robot,11),value(at,(9,5))). init(object(robot,12),value(at,(5,1))). init(object(robot,13),value(at,(10,5))). init(object(robot,14),value(at,(2,7))). init(object(robot,15),value(at,(8,1))). init(object(robot,16),value(at,(9,7))). init(object(robot,17),value(at,(3,1))). init(object(robot,18),value(at,(7,10))). init(object(robot,19),value(at,(10,8))). init(object(robot,20),value(at,(1,7))). init(object(robot,21),value(at,(1,1))). init(object(robot,22),value(at,(10,1))). init(object(robot,23),value(at,(7,5))). init(object(robot,24),value(at,(2,2))). init(object(robot,25),value(at,(2,1))). init(object(robot,26),value(at,(8,5))). init(object(robot,27),value(at,(10,4))). init(object(robot,28),value(at,(8,7))). init(object(robot,29),value(at,(10,3))). init(object(robot,30),value(at,(3,4))). init(object(node,1),value(at,(1,1))). init(object(node,1),value(at,(2,1))). init(object(node,1),value(at,(3,1))). init(object(node,1),value(at,(4,1))). init(object(node,1),value(at,(5,1))). init(object(node,1),value(at,(7,1))). init(object(node,1),value(at,(8,1))). init(object(node,1),value(at,(9,1))). init(object(node,1),value(at,(10,1))). init(object(node,1),value(at,(1,2))). init(object(node,1),value(at,(2,2))). init(object(node,1),value(at,(3,2))). init(object(node,1),value(at,(4,2))). init(object(node,1),value(at,(5,2))). init(object(node,1),value(at,(7,2))). init(object(node,1),value(at,(8,2))). init(object(node,1),value(at,(9,2))). init(object(node,1),value(at,(10,2))). init(object(node,1),value(at,(1,3))). init(object(node,1),value(at,(2,3))). init(object(node,1),value(at,(3,3))). init(object(node,1),value(at,(4,3))). init(object(node,1),value(at,(5,3))). init(object(node,1),value(at,(7,3))). init(object(node,1),value(at,(8,3))). init(object(node,1),value(at,(9,3))). init(object(node,1),value(at,(10,3))). init(object(node,1),value(at,(1,4))). init(object(node,1),value(at,(2,4))). init(object(node,1),value(at,(3,4))). init(object(node,1),value(at,(4,4))). init(object(node,1),value(at,(5,4))). init(object(node,1),value(at,(7,4))). init(object(node,1),value(at,(8,4))). init(object(node,1),value(at,(9,4))). init(object(node,1),value(at,(10,4))). init(object(node,1),value(at,(1,5))). init(object(node,1),value(at,(2,5))). init(object(node,1),value(at,(3,5))). init(object(node,1),value(at,(4,5))). init(object(node,1),value(at,(5,5))). init(object(node,1),value(at,(7,5))). init(object(node,1),value(at,(8,5))). init(object(node,1),value(at,(9,5))). init(object(node,1),value(at,(10,5))). init(object(node,1),value(at,(1,7))). init(object(node,1),value(at,(2,7))). init(object(node,1),value(at,(3,7))). init(object(node,1),value(at,(4,7))). init(object(node,1),value(at,(5,7))). init(object(node,1),value(at,(7,7))). init(object(node,1),value(at,(8,7))). init(object(node,1),value(at,(9,7))). init(object(node,1),value(at,(10,7))). init(object(node,1),value(at,(1,8))). init(object(node,1),value(at,(2,8))). init(object(node,1),value(at,(3,8))). init(object(node,1),value(at,(4,8))). init(object(node,1),value(at,(5,8))). init(object(node,1),value(at,(7,8))). init(object(node,1),value(at,(8,8))). init(object(node,1),value(at,(9,8))). init(object(node,1),value(at,(10,8))). init(object(node,1),value(at,(1,9))). init(object(node,1),value(at,(2,9))). init(object(node,1),value(at,(3,9))). init(object(node,1),value(at,(4,9))). init(object(node,1),value(at,(5,9))). init(object(node,1),value(at,(7,9))). init(object(node,1),value(at,(8,9))). init(object(node,1),value(at,(9,9))). init(object(node,1),value(at,(10,9))). init(object(node,1),value(at,(1,10))). init(object(node,1),value(at,(2,10))). init(object(node,1),value(at,(3,10))). init(object(node,1),value(at,(4,10))). init(object(node,1),value(at,(5,10))). init(object(node,1),value(at,(7,10))). init(object(node,1),value(at,(8,10))). init(object(node,1),value(at,(9,10))). init(object(node,1),value(at,(10,10))). init(object(node,1),value(at,(6,1))). init(object(node,1),value(at,(6,7))). init(object(node,1),value(at,(2,6))). init(object(node,1),value(at,(7,6))).
% 
% Models         : 1
% Calls          : 1
% Time           : 0.010s (Solving: 0.00s 1st Model: 0.00s Unsat: 0.00s)
% CPU Time       : 0.000s
